70 
300 
19.1 24.3 0 0
18.2 24 0 -24
12.6 24.9 -20 -138
14.4 28 20 -16
16.9 28.1 -20 -96
20.7 28.2 -20 -87
12.5 26.6 20 -27
21.8 27.3 -20 -88
12.5 22.6 20 -12
22.5 17 30 -14
19.9 15 -30 -138
14.9 15.1 -30 -76
11.5 18.6 -30 -106
12.4 29.8 30 -17
17.8 28.1 30 -12
9.1 29.8 40 -22
10 32.6 40 -13
13.9 33.1 40 -18
19.95 10.3 40 -27
15.2 8 40 -11
14.7 31.2 50 -24
7.4 36.5 50 -23
21 25.5 -50 -134
18 25.3 -10 -113
19.5 24.7 -10 -111
21.4 21.8 10 -24
16 21.4 10 -12
18.65 26.2 10 -20
17.9 28.9 10 -19
14.3 19.9 -20 -61
17 19 20 -10
10.8 21 -20 -118
15.7 23.7 -10 -74
